100
1000
238
236
236
236
235
235
234
233
233
232
231
231
231
231
230
230
230
229
229
228
228
227
227
227
225
224
224
224
224
223
221
221
218
216
215
215
215
214
214
213
213
213
211
210
208
207
207
206
205
204
203
200
200
199
198
197
195
195
195
193
192
191
191
190
190
189
188
188
185
185
184
183
183
183
182
181
181
181
180
179
179
177
176
174
172
172
172
171
170
170
169
168
168
168
166
163
163
163
163
162
